40 32
18 161
22 327
2 908
11 750
10 140
3 806
9 14
20 594
12 891
19 16
6 824
9 12
4 773
30 682
8 262
26 337
3 347
29 79
26 15
31 105
2 203
14 885
31 199
5 563
8 733
23 502
28 843
5 840
19 193
14 316
6 11
25 43
12 435
1 555
10 656
3 742
23 103
8 262
2 412
6 228
